program_setup_time=600;
sequence_setup_time=300;
max_colors_per_job=2;
min_cycles_per_job=2;
max_cycles_per_job=30;
max_jobs=25;
num_colors=1;
num_programs=1;
num_moulds=4;
num_demands=7;
num_lines=1;
available_moulds=[6,6,14,6];
slots_per_program=[7];
cycle_time_for_program=[3060];
program_for_mould=[1,1,1,1];
line_for_mould=[1,1,1,1];
color_compatibility=array2d(colors, colors, [1]);
demand_qty=[3,2,10,5,4,3,3];
demand_duedate=[-1065550,-1065550,-636079,-636079,-245650,27649,27649];
demand_color=[1,1,1,1,1,1,1];
demand_mould=[1,2,3,4,4,1,2];
reference_makespan = 18960;
reference_tardiness = 3698768;
reference_waste = 12;